1612179000
1612195200
1612265400
1612281600
1612351800
1612366500
1612438200
1612452600
1612524600
1612539000
1612783800
1612801500
1612870200
1612884600
1612956600
1612971300
1613043000
1613058300
1613129400
1613146500
1613388600
1613403900
1613475000
1613489400
1613561400
1613575800
1613646000
1613662200
1613734200
1613748600
1613993400
1614009600
1614079800
1614094800
